# LAMMPS Melt Al

variable    boxs equal 4
#variable    n equal 500

label          loop

units 		metal
boundary 	p p p
atom_style 	atomic

lattice 	fcc 	3.61 
region 	box 	block 0 ${boxs} 0 ${boxs} 0 ${boxs}
create_box 	1 	box
create_atoms 	1 	box

pair_style 	eam/alloy
pair_coeff	* * Al99.eam.alloy Al 

timestep 	0.002
thermo 		100

##############
#dump		1 all xyz 10 al.xyz
#dump_modify	1 element Al
##############
velocity 	all create 1100 31415 dist gaussian
fix 		1 all nvt temp 1100 1100 0.2 drag 0
run              50000
unfix            1

fix		2 all nvt temp 950 950 0.2 drag 0
#fix		3 all plumed plumedfile plumed.dat outfile log.plumed
run             50000
#unfix		2
#unfix		3

write_restart    plumed-start.restart
